# Solution for model GasLib-40
# Objective value = 1.4519383288422846e+01
loadshed[innode_1] 0
loadshed[innode_2] 0
loadshed[innode_3] 0
loadshed[innode_4] 0
loadshed[innode_5] 0
loadshed[innode_6] 0
loadshed[innode_7] 0
loadshed[innode_8] 0
loadshed[source_1] -2.1687776223232946e-01
loadshed[source_2] 1.1103178535133973e-01
loadshed[source_3] 1.9768833108826489e-01
loadshed[sink_1] 0
loadshed[sink_2] 0
loadshed[sink_3] 0
loadshed[sink_4] 0
loadshed[sink_5] 0
loadshed[sink_6] 0
loadshed[sink_7] 0
loadshed[sink_8] 0
loadshed[sink_9] 0
loadshed[sink_10] 0
loadshed[sink_11] 0
loadshed[sink_12] 8.8780942400547336e-01
loadshed[sink_13] 0
loadshed[sink_14] 0
loadshed[sink_15] 0
loadshed[sink_16] 0
loadshed[sink_17] 0
loadshed[sink_18] 0
loadshed[sink_19] 0
loadshed[sink_20] 0
loadshed[sink_21] 0
loadshed[sink_22] 0
loadshed[sink_23] 0
loadshed[sink_24] 0
loadshed[sink_25] 0
loadshed[sink_26] 0
loadshed[sink_27] 0
loadshed[sink_28] 0
loadshed[sink_29] 0
flow[source_1,sink_3] 1.9237654345290957e+02
flow[innode_1,sink_16] 1.6354166666666970e+01
flow[innode_6,sink_13] -1.2358507935941411e+01
flow[sink_13,sink_14] -2.8712674602608079e+01
flow[sink_14,sink_10] -4.5066841269274747e+01
flow[sink_25,sink_26] 1.8192103628081364e+02
flow[sink_26,sink_9] 1.6537645004491608e+02
flow[sink_9,sink_18] 1.4902228337824943e+02
flow[sink_26,sink_4] 1.9041956923092584e-01
flow[sink_4,sink_20] -1.6163747097435589e+01
flow[sink_18,sink_6] 1.3266811671158277e+02
flow[sink_25,innode_8] -1.5966821011957319e+02
flow[sink_6,sink_7] 8.3605616711582570e+01
flow[sink_6,sink_22] 3.2708333333333641e+01
flow[sink_7,sink_24] 3.4543116711577156e+01
flow[sink_22,sink_1] 1.6354166666666970e+01
flow[sink_24,sink_21] 1.8188950044910491e+01
flow[sink_21,sink_12] 1.8347833782438219e+00
flow[sink_7,sink_5] 3.2708333333338757e+01
flow[sink_5,sink_17] 1.6354166666672086e+01
flow[sink_17,sink_4] 0
flow[sink_17,sink_8] 0
flow[sink_3,sink_23] 16.3541666666697
flow[sink_8,sink_20] -1.6354166666668334e+01
flow[sink_25,sink_20] 4.8872080430770666e+01
flow[sink_25,sink_15] -7.5120565322736937e+01
flow[sink_15,sink_29] -9.1474731989403608e+01
flow[sink_29,sink_28] 1.6354166666667879e+01
flow[sink_29,sink_2] 1.6354166666684250e+01
flow[sink_2,sink_15] 0
flow[sink_29,innode_7] -1.4053723198942188e+02
flow[innode_4,sink_19] 4.9484838886517942e+01
flow[sink_19,innode_3] 4.5934721219672731e+01
flow[innode_4,innode_5] 7.7352835716090723e+01
flow[sink_27,innode_5] -7.7352835716090723e+01
flow[sink_27,sink_19] 6.0998669049424052e+01
flow[sink_10,sink_11] 3.2708333333333641e+01
flow[sink_10,innode_2] -4.8194620049602321e+01
flow[sink_10,innode_3] -4.5934721219672731e+01
flow[innode_6,sink_25] 1.2358507935941411e+01
flow[sink_11,innode_1] 1.6354166666666970e+01
flow[sink_19,innode_2] 4.8194620049602321e+01
flow[source_3,innode_4] 1.2683767460260867e+02
flow[source_2,innode_7] 1.4053723198942188e+02
flow[sink_3,innode_8] 1.5966821011957319e+02
pressure[innode_1] 7.6309507061094067e+01
pressure[innode_2] 7.9008493088619034e+01
pressure[innode_3] 7.8906775850020978e+01
pressure[innode_4] 81.01325
pressure[innode_5] 8.0960042640766815e+01
pressure[innode_6] 7.4210095891153031e+01
pressure[innode_7] 81.01325
pressure[innode_8] 8.0370208705740254e+01
pressure[source_1] 81.01325
pressure[source_2] 81.01325
pressure[source_3] 81.01325
pressure[sink_1] 4.0463515075241524e+01
pressure[sink_2] 76.8401600997931
pressure[sink_3] 8.0370208705740254e+01
pressure[sink_4] 6.1373293705335371e+01
pressure[sink_5] 2.7813746800015856e+01
pressure[sink_6] 4.2564592685628895e+01
pressure[sink_7] 4.1416886853806965e+01
pressure[sink_8] 6.1419485926137078e+01
pressure[sink_9] 5.1499296782138813e+01
pressure[sink_10] 7.6461208368697612e+01
pressure[sink_11] 7.6309507061094067e+01
pressure[sink_12] 1.01325
pressure[sink_13] 7.4278226280105343e+01
pressure[sink_14] 7.4329610057085787e+01
pressure[sink_15] 7.4574503832087373e+01
pressure[sink_16] 7.5287857226276387e+01
pressure[sink_17] 2.6595479594660745e+01
pressure[sink_18] 4.6107226406721836e+01
pressure[sink_19] 7.9008493088619034e+01
pressure[sink_20] 6.2559141349725365e+01
pressure[sink_21] 1.6661663440645933e+00
pressure[sink_22] 4.1527284217596531e+01
pressure[sink_23] 8.0205490694080467e+01
pressure[sink_24] 1.8675920662619054e+00
pressure[sink_25] 7.4210095891153031e+01
pressure[sink_26] 6.1397504142195238e+01
pressure[sink_27] 8.0318157036994961e+01
pressure[sink_28] 7.6959147324639574e+01
pressure[sink_29] 7.7254429598256749e+01
interdiction[source_1,sink_3] 0
interdiction[innode_1,sink_16] 0
interdiction[innode_6,sink_13] 0
interdiction[sink_13,sink_14] 0
interdiction[sink_14,sink_10] 0
interdiction[sink_25,sink_26] 0
interdiction[sink_26,sink_9] 0
interdiction[sink_9,sink_18] 0
interdiction[sink_26,sink_4] 0
interdiction[sink_4,sink_20] 0
interdiction[sink_18,sink_6] 0
interdiction[sink_25,innode_8] 0
interdiction[sink_6,sink_7] 0
interdiction[sink_6,sink_22] 0
interdiction[sink_7,sink_24] 0
interdiction[sink_22,sink_1] 0
interdiction[sink_24,sink_21] 0
interdiction[sink_21,sink_12] 0
interdiction[sink_7,sink_5] 0
interdiction[sink_5,sink_17] 0
interdiction[sink_17,sink_4] 1
interdiction[sink_17,sink_8] 1
interdiction[sink_3,sink_23] 0
interdiction[sink_8,sink_20] 0
interdiction[sink_25,sink_20] 0
interdiction[sink_25,sink_15] 0
interdiction[sink_15,sink_29] 0
interdiction[sink_29,sink_28] 0
interdiction[sink_29,sink_2] 0
interdiction[sink_2,sink_15] 1
interdiction[sink_29,innode_7] 0
interdiction[innode_4,sink_19] 0
interdiction[sink_19,innode_3] 0
interdiction[innode_4,innode_5] 0
interdiction[sink_27,innode_5] 0
interdiction[sink_27,sink_19] 0
interdiction[sink_10,sink_11] 0
interdiction[sink_10,innode_2] 0
interdiction[sink_10,innode_3] 0
interdiction[innode_6,sink_25] 0
interdiction[sink_11,innode_1] 0
interdiction[sink_19,innode_2] 0
interdiction[source_3,innode_4] 0
interdiction[source_2,innode_7] 0
interdiction[sink_3,innode_8] 0
WCcheckFlow[source_1,sink_3] 39
WCcheckFlow[innode_1,sink_16] 1
WCcheckFlow[innode_6,sink_13] 13
WCcheckFlow[sink_13,sink_14] 12
WCcheckFlow[sink_14,sink_10] 11
WCcheckFlow[sink_25,sink_26] 15
WCcheckFlow[sink_26,sink_9] 11
WCcheckFlow[sink_9,sink_18] 10
WCcheckFlow[sink_26,sink_4] 3
WCcheckFlow[sink_4,sink_20] 2
WCcheckFlow[sink_18,sink_6] 9
WCcheckFlow[sink_25,innode_8] -36
WCcheckFlow[sink_6,sink_7] 6
WCcheckFlow[sink_6,sink_22] 2
WCcheckFlow[sink_7,sink_24] 3
WCcheckFlow[sink_22,sink_1] 1
WCcheckFlow[sink_24,sink_21] 2
WCcheckFlow[sink_21,sink_12] 1
WCcheckFlow[sink_7,sink_5] 2
WCcheckFlow[sink_5,sink_17] 1
WCcheckFlow[sink_17,sink_4] 0
WCcheckFlow[sink_17,sink_8] 0
WCcheckFlow[sink_3,sink_23] 1
WCcheckFlow[sink_8,sink_20] -1
WCcheckFlow[sink_25,sink_20] 0
WCcheckFlow[sink_25,sink_15] 6
WCcheckFlow[sink_15,sink_29] 5
WCcheckFlow[sink_29,sink_28] 1
WCcheckFlow[sink_29,sink_2] 1
WCcheckFlow[sink_2,sink_15] 0
WCcheckFlow[sink_29,innode_7] 2
WCcheckFlow[innode_4,sink_19] -4
WCcheckFlow[sink_19,innode_3] -5
WCcheckFlow[innode_4,innode_5] 2
WCcheckFlow[sink_27,innode_5] -1
WCcheckFlow[sink_27,sink_19] 0
WCcheckFlow[sink_10,sink_11] 3
WCcheckFlow[sink_10,innode_2] 1
WCcheckFlow[sink_10,innode_3] 6
WCcheckFlow[innode_6,sink_25] -14
WCcheckFlow[sink_11,innode_1] 2
WCcheckFlow[sink_19,innode_2] 0
WCcheckFlow[source_3,innode_4] -1
WCcheckFlow[source_2,innode_7] -1
WCcheckFlow[sink_3,innode_8] 37
